<number of tasks>
89

<cycle time>
21

<task times>
1 1
2 2
3 3
4 4
5 5
6 6
7 7
8 8
9 9
10 10
11 1
12 2
13 3
14 4
15 5
16 6
17 7
18 8
19 9
20 10
21 1
22 2
23 3
24 4
25 5
26 6
27 7
28 8
29 9
30 10
31 1
32 2
33 3
34 4
35 5
36 6
37 7
38 8
39 9
40 10
41 1
42 2
43 3
44 4
45 5
46 6
47 7
48 8
49 9
50 10
51 1
52 2
53 3
54 4
55 5
56 6
57 7
58 8
59 9
60 10
61 1
62 2
63 3
64 4
65 5
66 6
67 7
68 8
69 9
70 10
71 1
72 2
73 3
74 4
75 5
76 6
77 7
78 8
79 9
80 10
81 1
82 2
83 3
84 4
85 5
86 6
87 7
88 8
89 9

<precedence relations>
1,2
2,3
3,4
4,5
4,6
4,7
4,8
4,9
5,10
6,11
7,12
8,18
9,18
10,14
11,12
12,13
13,14
14,15
14,16
15,17
16,54
17,18
18,19
18,20
19,22
20,21
20,28
21,54
22,23
23,24
24,25
25,26
25,27
25,29
26,37
27,33
28,29
29,31
30,54
31,32
32,33
33,34
34,35
35,36
35,37
36,38
37,38
38,39
39,40
39,41
39,42
39,43
40,44
41,53
42,53
43,45
44,52
45,46
46,47
47,48
47,49
49,50
50,51
51,52
52,53
53,68
53,69
53,70
53,71
54,55
55,56
56,57
57,58
57,59
57,60
57,61
57,62
57,63
57,64
57,65
57,66
58,67
59,67
60,67
61,67
62,67
63,67
64,67
65,67
66,67
67,73
68,72
69,72
70,72
71,73
72,78
72,80
73,74
74,75
74,76
75,77
76,81
77,78
78,79
79,81
80,81
81,82
81,84
81,85
82,83
83,86
84,86
85,86
86,87
87,88
87,89

<setup times forward>
1,30:1
2,30:1
3,30:1
4,7:1
4,9:1
4,30:1
5,7:1
5,9:1
5,10:1
5,11:1
5,12:1
5,13:1
5,30:1
6,7:1
6,9:1
6,10:1
6,11:1
6,30:1
7,5:1
7,6:1
7,8:1
7,9:2
8,7:1
8,9:1
8,10:1
8,11:1
8,12:1
8,13:1
8,14:1
8,15:1
8,30:1
9,5:1
9,6:1
9,7:2
9,8:1
9,10:2
9,11:2
9,12:2
9,16:1
9,17:1
9,18:1
9,30:2
10,6:1
10,8:1
10,9:2
10,13:2
10,14:2
11,5:1
11,8:1
11,9:2
12,5:1
12,8:1
12,9:2
12,13:2
13,5:1
13,8:1
13,10:2
13,30:2
14,8:1
14,16:1
14,30:2
15,8:1
15,16:1
15,17:1
15,30:2
16,9:1
16,15:1
16,19:1
16,22:1
16,23:1
16,24:1
16,26:1
16,29:2
16,30:1
16,31:2
16,32:2
16,33:2
16,34:2
16,35:1
16,36:1
16,37:1
16,38:1
16,39:2
16,41:2
16,42:2
16,43:2
16,44:1
16,47:2
16,48:1
16,49:2
16,50:1
16,51:1
16,52:1
16,53:1
16,54:2
16,68:1
16,70:1
16,71:1
17,9:1
17,30:1
18,19:1
18,30:1
19,16:1
19,20:1
19,21:1
19,28:1
19,30:2
19,54:1
19,55:1
19,56:1
19,57:1
19,58:2
19,59:2
19,60:1
19,61:2
19,62:1
19,63:1
19,64:1
19,65:1
19,66:1
19,67:2
20,19:1
20,22:1
20,23:1
20,24:1
20,26:1
20,30:1
21,19:1
21,22:1
21,23:1
21,24:1
21,26:1
21,29:2
21,30:1
21,31:2
21,32:2
21,33:2
21,34:2
21,35:1
21,36:1
21,37:1
21,38:1
21,39:2
21,41:2
21,42:2
21,43:2
21,44:1
21,47:2
21,48:1
21,49:2
21,50:1
21,51:1
21,52:1
21,53:1
21,54:2
21,68:1
21,70:1
21,71:1
22,16:1
22,20:1
22,21:1
22,28:1
22,30:2
22,54:1
22,55:1
22,56:1
22,57:1
22,58:2
22,59:2
22,60:1
22,61:2
22,62:1
22,63:1
22,64:1
22,65:1
22,66:1
22,67:2
23,16:1
23,20:1
23,21:1
23,28:1
23,30:2
23,54:1
23,55:1
23,56:1
23,57:1
23,58:2
23,59:2
23,60:1
23,61:2
23,62:1
23,63:1
23,64:1
23,65:1
23,66:1
23,67:2
24,16:1
24,20:1
24,21:1
24,25:1
24,28:1
24,30:2
24,54:1
24,55:1
24,56:1
24,57:1
24,58:2
24,59:2
24,60:1
24,61:2
24,62:1
24,63:1
24,64:1
24,65:1
24,66:1
24,67:2
25,26:1
25,29:2
25,30:1
25,54:2
25,55:2
25,58:1
25,59:1
25,60:2
25,61:1
25,62:2
25,64:2
25,66:2
25,67:1
26,16:1
26,20:1
26,21:1
26,27:1
26,28:1
26,29:3
26,31:3
26,32:3
26,33:3
26,34:3
26,36:2
26,37:2
26,54:3
26,55:3
26,56:1
26,57:1
26,60:3
26,62:3
26,63:1
26,64:3
26,65:1
26,66:3
27,26:1
27,29:2
27,30:1
27,31:2
27,32:2
27,33:2
27,54:2
27,55:2
27,58:1
27,59:1
27,60:2
27,61:1
27,62:2
27,64:2
27,66:2
27,67:1
28,19:1
28,22:1
28,23:1
28,24:1
28,26:1
28,29:2
28,30:1
28,54:2
28,55:2
28,58:1
28,59:1
28,60:2
28,61:1
28,62:2
28,64:2
28,66:2
28,67:1
29,16:2
29,21:2
29,26:3
29,27:2
29,30:3
29,56:2
29,57:2
29,58:3
29,59:3
29,61:3
29,63:2
29,65:2
29,67:3
30,1:1
30,2:1
30,3:1
30,4:1
30,5:1
30,6:1
30,8:1
30,9:2
30,13:2
30,14:2
30,15:2
30,16:1
30,17:1
30,18:1
30,19:2
30,20:1
30,21:1
30,22:2
30,23:2
30,24:2
30,25:1
30,27:1
30,28:1
30,29:3
30,31:3
30,32:3
30,33:3
30,34:3
30,36:2
30,37:2
30,38:2
30,39:3
30,40:1
30,41:3
30,42:3
30,43:3
30,45:1
30,46:1
30,47:3
30,49:3
30,53:2
30,54:3
30,68:2
30,69:1
30,70:2
30,72:1
30,80:1
31,16:2
31,21:2
31,26:3
31,27:2
31,30:3
31,56:2
31,57:2
31,58:3
31,59:3
31,61:3
31,63:2
31,65:2
31,67:3
32,16:2
32,21:2
32,26:3
32,27:2
32,30:3
32,56:2
32,57:2
32,58:3
32,59:3
32,61:3
32,63:2
32,65:2
32,67:3
33,16:2
33,21:2
33,26:3
33,30:3
33,56:2
33,57:2
33,58:3
33,59:3
33,61:3
33,63:2
33,65:2
33,67:3
34,16:2
34,21:2
34,26:3
34,30:3
34,35:3
34,56:2
34,57:2
34,58:3
34,59:3
34,61:3
34,63:2
34,65:2
34,67:3
35,16:1
35,21:1
35,36:2
35,37:2
35,54:3
35,55:3
35,56:1
35,57:1
35,60:3
35,62:3
35,63:1
35,64:3
35,65:1
35,66:3
36,16:1
36,21:1
36,26:2
36,30:2
36,54:1
36,55:1
36,56:1
36,57:1
36,58:2
36,59:2
36,60:1
36,61:2
36,62:1
36,63:1
36,64:1
36,65:1
36,66:1
36,67:2
37,16:1
37,21:1
37,30:2
37,54:1
37,55:1
37,56:1
37,57:1
37,58:2
37,59:2
37,60:1
37,61:2
37,62:1
37,63:1
37,64:1
37,65:1
37,66:1
37,67:2
38,16:1
38,21:1
38,30:2
38,39:1
38,54:1
38,55:1
38,56:1
38,57:1
38,58:2
38,59:2
38,60:1
38,61:2
38,62:1
38,63:1
38,64:1
38,65:1
38,66:1
38,67:2
39,16:2
39,21:2
39,30:3
39,40:2
39,56:2
39,57:2
39,58:3
39,59:3
39,61:3
39,63:2
39,65:2
39,67:3
40,30:1
40,41:2
40,42:2
40,43:2
40,44:1
40,47:2
40,48:1
40,49:2
40,50:1
40,51:1
40,54:2
40,55:2
40,58:1
40,59:1
40,60:2
40,61:1
40,62:2
40,64:2
40,66:2
40,67:1
41,16:2
41,21:2
41,30:3
41,40:2
41,44:3
41,45:2
41,46:2
41,48:3
41,50:3
41,51:3
41,52:3
41,53:1
41,56:2
41,57:2
41,58:3
41,59:3
41,61:3
41,63:2
41,65:2
41,67:3
42,16:2
42,21:2
42,30:3
42,40:2
42,44:3
42,45:2
42,46:2
42,48:3
42,50:3
42,51:3
42,52:3
42,53:1
42,56:2
42,57:2
42,58:3
42,59:3
42,61:3
42,63:2
42,65:2
42,67:3
43,16:2
43,21:2
43,30:3
43,40:2
43,44:3
43,45:2
43,56:2
43,57:2
43,58:3
43,59:3
43,61:3
43,63:2
43,65:2
43,67:3
44,16:1
44,21:1
44,41:3
44,42:3
44,43:3
44,45:1
44,46:1
44,47:3
44,49:3
44,54:3
44,55:3
44,56:1
44,57:1
44,60:3
44,62:3
44,63:1
44,64:3
44,65:1
44,66:3
45,30:1
45,41:2
45,42:2
45,44:1
45,54:2
45,55:2
45,58:1
45,59:1
45,60:2
45,61:1
45,62:2
45,64:2
45,66:2
45,67:1
46,30:1
46,41:2
46,42:2
46,44:1
46,47:2
46,54:2
46,55:2
46,58:1
46,59:1
46,60:2
46,61:1
46,62:2
46,64:2
46,66:2
46,67:1
47,16:2
47,21:2
47,30:3
47,40:2
47,44:3
47,48:3
47,56:2
47,57:2
47,58:3
47,59:3
47,61:3
47,63:2
47,65:2
47,67:3
48,16:1
48,21:1
48,40:1
48,41:3
48,42:3
48,49:3
48,53:2
48,54:3
48,55:3
48,56:1
48,57:1
48,60:3
48,62:3
48,63:1
48,64:3
48,65:1
48,66:3
48,68:2
48,69:1
48,70:2
48,72:1
48,79:3
48,80:1
48,81:3
48,82:3
48,84:3
48,88:2
48,89:2
49,16:2
49,21:2
49,30:3
49,40:2
49,44:3
49,48:3
49,50:3
49,56:2
49,57:2
49,58:3
49,59:3
49,61:3
49,63:2
49,65:2
49,67:3
50,16:1
50,21:1
50,40:1
50,41:3
50,42:3
50,54:3
50,55:3
50,56:1
50,57:1
50,60:3
50,62:3
50,63:1
50,64:3
50,65:1
50,66:3
51,16:1
51,21:1
51,40:1
51,41:3
51,42:3
51,54:3
51,55:3
51,56:1
51,57:1
51,60:3
51,62:3
51,63:1
51,64:3
51,65:1
51,66:3
52,16:1
52,21:1
52,41:3
52,42:3
52,53:2
52,54:3
52,55:3
52,56:1
52,57:1
52,60:3
52,62:3
52,63:1
52,64:3
52,65:1
52,66:3
53,16:1
53,21:1
53,30:2
53,48:2
53,54:1
53,55:1
53,56:1
53,57:1
53,58:2
53,59:2
53,60:1
53,61:2
53,62:1
53,63:1
53,64:1
53,65:1
53,66:1
53,67:2
53,69:1
53,71:2
54,19:1
54,22:1
54,23:1
54,24:1
54,25:2
54,26:3
54,27:2
54,28:2
54,35:3
54,36:1
54,37:1
54,38:1
54,40:2
54,44:3
54,45:2
54,46:2
54,48:3
54,50:3
54,51:3
54,52:3
54,53:1
54,68:1
54,69:2
54,70:1
54,71:3
54,72:2
54,80:2
55,19:1
55,22:1
55,23:1
55,24:1
55,25:2
55,26:3
55,27:2
55,28:2
55,35:3
55,36:1
55,37:1
55,38:1
55,40:2
55,44:3
55,45:2
55,46:2
55,48:3
55,50:3
55,51:3
55,52:3
55,53:1
55,56:2
55,68:1
55,69:2
55,70:1
55,71:3
55,72:2
55,80:2
56,19:1
56,22:1
56,23:1
56,24:1
56,26:1
56,29:2
56,31:2
56,32:2
56,33:2
56,34:2
56,35:1
56,36:1
56,37:1
56,38:1
56,39:2
56,41:2
56,42:2
56,43:2
56,44:1
56,47:2
56,48:1
56,49:2
56,50:1
56,51:1
56,52:1
56,53:1
56,68:1
56,70:1
56,71:1
57,19:1
57,22:1
57,23:1
57,24:1
57,26:1
57,29:2
57,31:2
57,32:2
57,33:2
57,34:2
57,35:1
57,36:1
57,37:1
57,38:1
57,39:2
57,41:2
57,42:2
57,43:2
57,44:1
57,47:2
57,48:1
57,49:2
57,50:1
57,51:1
57,52:1
57,53:1
57,58:1
57,59:1
57,60:2
57,61:1
57,62:2
57,64:2
57,66:2
57,68:1
57,70:1
57,71:1
58,19:2
58,22:2
58,23:2
58,24:2
58,25:1
58,27:1
58,28:1
58,29:3
58,31:3
58,32:3
58,33:3
58,34:3
58,36:2
58,37:2
58,38:2
58,39:3
58,40:1
58,41:3
58,42:3
58,43:3
58,45:1
58,46:1
58,47:3
58,49:3
58,53:2
58,60:3
58,62:3
58,63:1
58,64:3
58,65:1
58,66:3
58,68:2
58,69:1
58,70:2
58,72:1
58,80:1
59,19:2
59,22:2
59,23:2
59,24:2
59,25:1
59,27:1
59,28:1
59,29:3
59,31:3
59,32:3
59,33:3
59,34:3
59,36:2
59,37:2
59,38:2
59,39:3
59,40:1
59,41:3
59,42:3
59,43:3
59,45:1
59,46:1
59,47:3
59,49:3
59,53:2
59,60:3
59,62:3
59,63:1
59,64:3
59,65:1
59,66:3
59,68:2
59,69:1
59,70:2
59,72:1
59,80:1
60,19:1
60,22:1
60,23:1
60,24:1
60,25:2
60,26:3
60,27:2
60,28:2
60,35:3
60,36:1
60,37:1
60,38:1
60,40:2
60,44:3
60,45:2
60,46:2
60,48:3
60,50:3
60,51:3
60,52:3
60,53:1
60,58:3
60,59:3
60,61:3
60,63:2
60,65:2
60,67:3
60,68:1
60,69:2
60,70:1
60,71:3
60,72:2
60,80:2
61,19:2
61,22:2
61,23:2
61,24:2
61,25:1
61,27:1
61,28:1
61,29:3
61,31:3
61,32:3
61,33:3
61,34:3
61,36:2
61,37:2
61,38:2
61,39:3
61,40:1
61,41:3
61,42:3
61,43:3
61,45:1
61,46:1
61,47:3
61,49:3
61,53:2
61,60:3
61,62:3
61,63:1
61,64:3
61,65:1
61,66:3
61,68:2
61,69:1
61,70:2
61,72:1
61,80:1
62,19:1
62,22:1
62,23:1
62,24:1
62,25:2
62,26:3
62,27:2
62,28:2
62,35:3
62,36:1
62,37:1
62,38:1
62,40:2
62,44:3
62,45:2
62,46:2
62,48:3
62,50:3
62,51:3
62,52:3
62,53:1
62,58:3
62,59:3
62,61:3
62,63:2
62,65:2
62,67:3
62,68:1
62,69:2
62,70:1
62,71:3
62,72:2
62,80:2
63,19:1
63,22:1
63,23:1
63,24:1
63,26:1
63,29:2
63,31:2
63,32:2
63,33:2
63,34:2
63,35:1
63,36:1
63,37:1
63,38:1
63,39:2
63,41:2
63,42:2
63,43:2
63,44:1
63,47:2
63,48:1
63,49:2
63,50:1
63,51:1
63,52:1
63,53:1
63,58:1
63,59:1
63,60:2
63,61:1
63,62:2
63,64:2
63,66:2
63,67:1
63,68:1
63,70:1
63,71:1
64,19:1
64,22:1
64,23:1
64,24:1
64,25:2
64,26:3
64,27:2
64,28:2
64,35:3
64,36:1
64,37:1
64,38:1
64,40:2
64,44:3
64,45:2
64,46:2
64,48:3
64,50:3
64,51:3
64,52:3
64,53:1
64,58:3
64,59:3
64,61:3
64,63:2
64,65:2
64,67:3
64,68:1
64,69:2
64,70:1
64,71:3
64,72:2
64,80:2
65,19:1
65,22:1
65,23:1
65,24:1
65,26:1
65,29:2
65,31:2
65,32:2
65,33:2
65,34:2
65,35:1
65,36:1
65,37:1
65,38:1
65,39:2
65,41:2
65,42:2
65,43:2
65,44:1
65,47:2
65,48:1
65,49:2
65,50:1
65,51:1
65,52:1
65,53:1
65,58:1
65,59:1
65,60:2
65,61:1
65,62:2
65,64:2
65,66:2
65,67:1
65,68:1
65,70:1
65,71:1
66,19:1
66,22:1
66,23:1
66,24:1
66,25:2
66,26:3
66,27:2
66,28:2
66,35:3
66,36:1
66,37:1
66,38:1
66,40:2
66,44:3
66,45:2
66,46:2
66,48:3
66,50:3
66,51:3
66,52:3
66,53:1
66,58:3
66,59:3
66,61:3
66,63:2
66,65:2
66,67:3
66,68:1
66,69:2
66,70:1
66,71:3
66,72:2
66,80:2
67,19:2
67,22:2
67,23:2
67,24:2
67,25:1
67,27:1
67,28:1
67,29:3
67,31:3
67,32:3
67,33:3
67,34:3
67,36:2
67,37:2
67,38:2
67,39:3
67,40:1
67,41:3
67,42:3
67,43:3
67,45:1
67,46:1
67,47:3
67,49:3
67,53:2
67,68:2
67,69:1
67,70:2
67,72:1
67,80:1
68,16:1
68,21:1
68,30:2
68,48:2
68,54:1
68,55:1
68,56:1
68,57:1
68,58:2
68,59:2
68,60:1
68,61:2
68,62:1
68,63:1
68,64:1
68,65:1
68,66:1
68,67:2
68,69:1
68,71:2
68,72:1
68,73:2
68,74:2
68,75:2
68,76:2
68,77:2
69,30:1
69,48:1
69,54:2
69,55:2
69,58:1
69,59:1
69,60:2
69,61:1
69,62:2
69,64:2
69,66:2
69,67:1
69,68:1
69,70:1
69,71:1
69,73:1
69,74:1
69,75:1
69,76:1
69,77:1
70,16:1
70,21:1
70,30:2
70,48:2
70,54:1
70,55:1
70,56:1
70,57:1
70,58:2
70,59:2
70,60:1
70,61:2
70,62:1
70,63:1
70,64:1
70,65:1
70,66:1
70,67:2
70,69:1
70,71:2
70,72:1
70,73:2
70,74:2
70,75:2
70,76:2
70,77:2
71,16:1
71,21:1
71,54:3
71,55:3
71,56:1
71,57:1
71,60:3
71,62:3
71,63:1
71,64:3
71,65:1
71,66:3
71,68:2
71,69:1
71,70:2
71,72:1
71,80:1
72,30:1
72,48:1
72,54:2
72,55:2
72,58:1
72,59:1
72,60:2
72,61:1
72,62:2
72,64:2
72,66:2
72,67:1
72,71:1
72,73:1
72,74:1
72,75:1
72,76:1
72,77:1
72,78:1
73,68:2
73,69:1
73,70:2
73,72:1
73,80:1
74,68:2
74,69:1
74,70:2
74,72:1
74,80:1
75,68:2
75,69:1
75,70:2
75,72:1
75,80:1
76,68:2
76,69:1
76,70:2
76,72:1
76,79:3
76,80:1
76,81:3
77,68:2
77,69:1
77,70:2
77,72:1
77,80:1
78,79:3
78,80:1
79,48:3
79,76:3
79,80:2
80,30:1
80,48:1
80,54:2
80,55:2
80,58:1
80,59:1
80,60:2
80,61:1
80,62:2
80,64:2
80,66:2
80,67:1
80,71:1
80,73:1
80,74:1
80,75:1
80,76:1
80,77:1
80,78:1
80,79:2
80,81:2
81,48:3
81,85:3
82,48:3
82,83:3
82,85:3
83,84:3
84,48:3
84,83:3
84,85:3
84,86:3
85,82:3
85,84:3
87,88:2
87,89:2
88,48:2
89,48:2

<setup times backward>
5,9:1
5,13:1
6,9:1
7,1:1
7,2:1
7,3:1
7,4:1
7,5:1
7,6:1
7,8:1
7,9:2
8,9:1
8,13:1
8,14:1
8,15:1
10,1:1
10,2:1
10,3:1
10,4:1
10,5:1
10,6:1
10,8:1
10,9:2
10,13:2
11,1:1
11,2:1
11,3:1
11,4:1
11,5:1
11,6:1
11,8:1
11,9:2
12,1:1
12,2:1
12,3:1
12,4:1
12,5:1
12,6:1
12,8:1
12,9:2
16,9:1
16,13:1
16,14:1
16,15:1
16,19:1
16,22:1
16,23:1
16,24:1
16,29:2
16,31:2
16,32:2
16,33:2
16,34:2
16,36:1
16,37:1
16,38:1
16,39:2
16,41:2
16,42:2
16,43:2
16,47:2
16,49:2
16,53:1
16,68:1
16,70:1
17,9:1
17,13:1
17,14:1
17,15:1
18,9:1
18,13:1
18,14:1
18,15:1
19,54:1
19,55:1
19,60:1
19,62:1
19,64:1
19,66:1
20,9:1
20,13:1
20,14:1
20,15:1
20,19:1
20,22:1
20,23:1
20,24:1
21,9:1
21,13:1
21,14:1
21,15:1
21,19:1
21,22:1
21,23:1
21,24:1
21,29:2
21,31:2
21,32:2
21,33:2
21,34:2
21,36:1
21,37:1
21,38:1
21,39:2
21,41:2
21,42:2
21,43:2
21,47:2
21,49:2
21,53:1
21,68:1
21,70:1
22,54:1
22,55:1
22,60:1
22,62:1
22,64:1
22,66:1
23,54:1
23,55:1
23,60:1
23,62:1
23,64:1
23,66:1
24,54:1
24,55:1
24,60:1
24,62:1
24,64:1
24,66:1
25,9:1
25,13:1
25,14:1
25,15:1
25,19:1
25,22:1
25,23:1
25,24:1
25,54:2
25,55:2
25,60:2
25,62:2
25,64:2
25,66:2
26,1:1
26,2:1
26,3:1
26,4:1
26,5:1
26,6:1
26,8:1
26,9:2
26,13:2
26,14:2
26,15:2
26,16:1
26,17:1
26,18:1
26,19:2
26,20:1
26,21:1
26,22:2
26,23:2
26,24:2
26,25:1
26,27:1
26,28:1
26,29:3
26,31:3
26,32:3
26,33:3
26,34:3
26,36:2
26,54:3
26,55:3
26,56:1
26,57:1
26,60:3
26,62:3
26,63:1
26,64:3
26,65:1
26,66:3
27,9:1
27,13:1
27,14:1
27,15:1
27,19:1
27,22:1
27,23:1
27,24:1
27,29:2
27,31:2
27,32:2
27,54:2
27,55:2
27,60:2
27,62:2
27,64:2
27,66:2
28,9:1
28,13:1
28,14:1
28,15:1
28,19:1
28,22:1
28,23:1
28,24:1
28,54:2
28,55:2
28,60:2
28,62:2
28,64:2
28,66:2
30,1:1
30,2:1
30,3:1
30,4:1
30,5:1
30,6:1
30,8:1
30,9:2
30,13:2
30,14:2
30,15:2
30,16:1
30,17:1
30,18:1
30,19:2
30,20:1
30,21:1
30,22:2
30,23:2
30,24:2
30,25:1
30,27:1
30,28:1
30,29:3
30,31:3
30,32:3
30,33:3
30,34:3
30,36:2
30,37:2
30,38:2
30,39:3
30,40:1
30,41:3
30,42:3
30,43:3
30,45:1
30,46:1
30,47:3
30,49:3
30,53:2
30,68:2
30,69:1
30,70:2
30,72:1
30,80:1
35,1:1
35,2:1
35,3:1
35,4:1
35,5:1
35,6:1
35,8:1
35,9:2
35,13:2
35,14:2
35,15:2
35,16:1
35,17:1
35,18:1
35,19:2
35,20:1
35,21:1
35,22:2
35,23:2
35,24:2
35,25:1
35,27:1
35,28:1
35,29:3
35,31:3
35,32:3
35,33:3
35,34:3
35,54:3
35,55:3
35,56:1
35,57:1
35,60:3
35,62:3
35,63:1
35,64:3
35,65:1
35,66:3
36,29:1
36,31:1
36,32:1
36,33:1
36,34:1
36,54:1
36,55:1
36,60:1
36,62:1
36,64:1
36,66:1
37,29:1
37,31:1
37,32:1
37,33:1
37,34:1
37,54:1
37,55:1
37,60:1
37,62:1
37,64:1
37,66:1
38,29:1
38,31:1
38,32:1
38,33:1
38,34:1
38,54:1
38,55:1
38,60:1
38,62:1
38,64:1
38,66:1
40,9:1
40,13:1
40,14:1
40,15:1
40,19:1
40,22:1
40,23:1
40,24:1
40,29:2
40,31:2
40,32:2
40,33:2
40,34:2
40,36:1
40,37:1
40,38:1
40,39:2
40,41:2
40,42:2
40,43:2
40,47:2
40,49:2
40,54:2
40,55:2
40,60:2
40,62:2
40,64:2
40,66:2
44,1:1
44,2:1
44,3:1
44,4:1
44,5:1
44,6:1
44,8:1
44,9:2
44,13:2
44,14:2
44,15:2
44,16:1
44,17:1
44,18:1
44,19:2
44,20:1
44,21:1
44,22:2
44,23:2
44,24:2
44,25:1
44,27:1
44,28:1
44,29:3
44,31:3
44,32:3
44,33:3
44,34:3
44,36:2
44,37:2
44,38:2
44,39:3
44,40:1
44,41:3
44,42:3
44,43:3
44,45:1
44,46:1
44,47:3
44,49:3
44,54:3
44,55:3
44,56:1
44,57:1
44,60:3
44,62:3
44,63:1
44,64:3
44,65:1
44,66:3
45,9:1
45,13:1
45,14:1
45,15:1
45,19:1
45,22:1
45,23:1
45,24:1
45,29:2
45,31:2
45,32:2
45,33:2
45,34:2
45,36:1
45,37:1
45,38:1
45,39:2
45,41:2
45,42:2
45,43:2
45,54:2
45,55:2
45,60:2
45,62:2
45,64:2
45,66:2
46,9:1
46,13:1
46,14:1
46,15:1
46,19:1
46,22:1
46,23:1
46,24:1
46,29:2
46,31:2
46,32:2
46,33:2
46,34:2
46,36:1
46,37:1
46,38:1
46,39:2
46,41:2
46,42:2
46,43:2
46,54:2
46,55:2
46,60:2
46,62:2
46,64:2
46,66:2
48,1:1
48,2:1
48,3:1
48,4:1
48,5:1
48,6:1
48,8:1
48,9:2
48,13:2
48,14:2
48,15:2
48,16:1
48,17:1
48,18:1
48,19:2
48,20:1
48,21:1
48,22:2
48,23:2
48,24:2
48,25:1
48,27:1
48,28:1
48,29:3
48,31:3
48,32:3
48,33:3
48,34:3
48,36:2
48,37:2
48,38:2
48,39:3
48,40:1
48,41:3
48,42:3
48,43:3
48,45:1
48,46:1
48,47:3
48,49:3
48,53:2
48,54:3
48,55:3
48,56:1
48,57:1
48,60:3
48,62:3
48,63:1
48,64:3
48,65:1
48,66:3
48,68:2
48,69:1
48,70:2
48,72:1
48,79:3
48,80:1
48,81:3
48,82:3
48,84:3
48,88:2
48,89:2
50,1:1
50,2:1
50,3:1
50,4:1
50,5:1
50,6:1
50,8:1
50,9:2
50,13:2
50,14:2
50,15:2
50,16:1
50,17:1
50,18:1
50,19:2
50,20:1
50,21:1
50,22:2
50,23:2
50,24:2
50,25:1
50,27:1
50,28:1
50,29:3
50,31:3
50,32:3
50,33:3
50,34:3
50,36:2
50,37:2
50,38:2
50,39:3
50,40:1
50,41:3
50,42:3
50,43:3
50,45:1
50,46:1
50,47:3
50,49:3
50,54:3
50,55:3
50,56:1
50,57:1
50,60:3
50,62:3
50,63:1
50,64:3
50,65:1
50,66:3
51,1:1
51,2:1
51,3:1
51,4:1
51,5:1
51,6:1
51,8:1
51,9:2
51,13:2
51,14:2
51,15:2
51,16:1
51,17:1
51,18:1
51,19:2
51,20:1
51,21:1
51,22:2
51,23:2
51,24:2
51,25:1
51,27:1
51,28:1
51,29:3
51,31:3
51,32:3
51,33:3
51,34:3
51,36:2
51,37:2
51,38:2
51,39:3
51,40:1
51,41:3
51,42:3
51,43:3
51,45:1
51,46:1
51,47:3
51,49:3
51,54:3
51,55:3
51,56:1
51,57:1
51,60:3
51,62:3
51,63:1
51,64:3
51,65:1
51,66:3
52,1:1
52,2:1
52,3:1
52,4:1
52,5:1
52,6:1
52,8:1
52,9:2
52,13:2
52,14:2
52,15:2
52,16:1
52,17:1
52,18:1
52,19:2
52,20:1
52,21:1
52,22:2
52,23:2
52,24:2
52,25:1
52,27:1
52,28:1
52,29:3
52,31:3
52,32:3
52,33:3
52,34:3
52,36:2
52,37:2
52,38:2
52,39:3
52,40:1
52,41:3
52,42:3
52,43:3
52,45:1
52,46:1
52,47:3
52,49:3
52,54:3
52,55:3
52,56:1
52,57:1
52,60:3
52,62:3
52,63:1
52,64:3
52,65:1
52,66:3
53,29:1
53,31:1
53,32:1
53,33:1
53,34:1
53,39:1
53,41:1
53,42:1
53,43:1
53,47:1
53,49:1
53,54:1
53,55:1
53,60:1
53,62:1
53,64:1
53,66:1
56,9:1
56,13:1
56,14:1
56,15:1
56,19:1
56,22:1
56,23:1
56,24:1
56,29:2
56,31:2
56,32:2
56,33:2
56,34:2
56,36:1
56,37:1
56,38:1
56,39:2
56,41:2
56,42:2
56,43:2
56,47:2
56,49:2
56,53:1
56,54:2
56,55:2
56,68:1
56,70:1
57,9:1
57,13:1
57,14:1
57,15:1
57,19:1
57,22:1
57,23:1
57,24:1
57,29:2
57,31:2
57,32:2
57,33:2
57,34:2
57,36:1
57,37:1
57,38:1
57,39:2
57,41:2
57,42:2
57,43:2
57,47:2
57,49:2
57,53:1
57,54:2
57,55:2
57,68:1
57,70:1
58,1:1
58,2:1
58,3:1
58,4:1
58,5:1
58,6:1
58,8:1
58,9:2
58,13:2
58,14:2
58,15:2
58,16:1
58,17:1
58,18:1
58,19:2
58,20:1
58,21:1
58,22:2
58,23:2
58,24:2
58,25:1
58,27:1
58,28:1
58,29:3
58,31:3
58,32:3
58,33:3
58,34:3
58,36:2
58,37:2
58,38:2
58,39:3
58,40:1
58,41:3
58,42:3
58,43:3
58,45:1
58,46:1
58,47:3
58,49:3
58,53:2
58,54:3
58,55:3
58,56:1
58,57:1
58,60:3
58,62:3
58,63:1
58,64:3
58,65:1
58,66:3
58,68:2
58,69:1
58,70:2
58,72:1
58,80:1
59,1:1
59,2:1
59,3:1
59,4:1
59,5:1
59,6:1
59,8:1
59,9:2
59,13:2
59,14:2
59,15:2
59,16:1
59,17:1
59,18:1
59,19:2
59,20:1
59,21:1
59,22:2
59,23:2
59,24:2
59,25:1
59,27:1
59,28:1
59,29:3
59,31:3
59,32:3
59,33:3
59,34:3
59,36:2
59,37:2
59,38:2
59,39:3
59,40:1
59,41:3
59,42:3
59,43:3
59,45:1
59,46:1
59,47:3
59,49:3
59,53:2
59,54:3
59,55:3
59,56:1
59,57:1
59,60:3
59,62:3
59,63:1
59,64:3
59,65:1
59,66:3
59,68:2
59,69:1
59,70:2
59,72:1
59,80:1
61,1:1
61,2:1
61,3:1
61,4:1
61,5:1
61,6:1
61,8:1
61,9:2
61,13:2
61,14:2
61,15:2
61,16:1
61,17:1
61,18:1
61,19:2
61,20:1
61,21:1
61,22:2
61,23:2
61,24:2
61,25:1
61,27:1
61,28:1
61,29:3
61,31:3
61,32:3
61,33:3
61,34:3
61,36:2
61,37:2
61,38:2
61,39:3
61,40:1
61,41:3
61,42:3
61,43:3
61,45:1
61,46:1
61,47:3
61,49:3
61,53:2
61,54:3
61,55:3
61,56:1
61,57:1
61,60:3
61,62:3
61,63:1
61,64:3
61,65:1
61,66:3
61,68:2
61,69:1
61,70:2
61,72:1
61,80:1
63,9:1
63,13:1
63,14:1
63,15:1
63,19:1
63,22:1
63,23:1
63,24:1
63,29:2
63,31:2
63,32:2
63,33:2
63,34:2
63,36:1
63,37:1
63,38:1
63,39:2
63,41:2
63,42:2
63,43:2
63,47:2
63,49:2
63,53:1
63,54:2
63,55:2
63,60:2
63,62:2
63,64:2
63,66:2
63,68:1
63,70:1
65,9:1
65,13:1
65,14:1
65,15:1
65,19:1
65,22:1
65,23:1
65,24:1
65,29:2
65,31:2
65,32:2
65,33:2
65,34:2
65,36:1
65,37:1
65,38:1
65,39:2
65,41:2
65,42:2
65,43:2
65,47:2
65,49:2
65,53:1
65,54:2
65,55:2
65,60:2
65,62:2
65,64:2
65,66:2
65,68:1
65,70:1
67,1:1
67,2:1
67,3:1
67,4:1
67,5:1
67,6:1
67,8:1
67,9:2
67,13:2
67,14:2
67,15:2
67,16:1
67,17:1
67,18:1
67,19:2
67,20:1
67,21:1
67,22:2
67,23:2
67,24:2
67,25:1
67,27:1
67,28:1
67,29:3
67,31:3
67,32:3
67,33:3
67,34:3
67,36:2
67,37:2
67,38:2
67,39:3
67,40:1
67,41:3
67,42:3
67,43:3
67,45:1
67,46:1
67,47:3
67,49:3
67,53:2
67,54:3
67,55:3
67,56:1
67,57:1
67,60:3
67,62:3
67,63:1
67,64:3
67,65:1
67,66:3
67,68:2
67,69:1
67,70:2
67,72:1
67,80:1
68,29:1
68,31:1
68,32:1
68,33:1
68,34:1
68,39:1
68,41:1
68,42:1
68,43:1
68,47:1
68,49:1
68,54:1
68,55:1
68,60:1
68,62:1
68,64:1
68,66:1
69,9:1
69,13:1
69,14:1
69,15:1
69,19:1
69,22:1
69,23:1
69,24:1
69,29:2
69,31:2
69,32:2
69,33:2
69,34:2
69,36:1
69,37:1
69,38:1
69,39:2
69,41:2
69,42:2
69,43:2
69,47:2
69,49:2
69,53:1
69,54:2
69,55:2
69,60:2
69,62:2
69,64:2
69,66:2
69,68:1
69,70:1
70,29:1
70,31:1
70,32:1
70,33:1
70,34:1
70,39:1
70,41:1
70,42:1
70,43:1
70,47:1
70,49:1
70,54:1
70,55:1
70,60:1
70,62:1
70,64:1
70,66:1
71,1:1
71,2:1
71,3:1
71,4:1
71,5:1
71,6:1
71,8:1
71,9:2
71,13:2
71,14:2
71,15:2
71,16:1
71,17:1
71,18:1
71,19:2
71,20:1
71,21:1
71,22:2
71,23:2
71,24:2
71,25:1
71,27:1
71,28:1
71,29:3
71,31:3
71,32:3
71,33:3
71,34:3
71,36:2
71,37:2
71,38:2
71,39:3
71,40:1
71,41:3
71,42:3
71,43:3
71,45:1
71,46:1
71,47:3
71,49:3
71,53:2
71,54:3
71,55:3
71,56:1
71,57:1
71,60:3
71,62:3
71,63:1
71,64:3
71,65:1
71,66:3
71,68:2
71,69:1
71,70:2
71,72:1
71,80:1
72,9:1
72,13:1
72,14:1
72,15:1
72,19:1
72,22:1
72,23:1
72,24:1
72,29:2
72,31:2
72,32:2
72,33:2
72,34:2
72,36:1
72,37:1
72,38:1
72,39:2
72,41:2
72,42:2
72,43:2
72,47:2
72,49:2
72,53:1
72,54:2
72,55:2
72,60:2
72,62:2
72,64:2
72,66:2
72,68:1
72,70:1
73,1:1
73,2:1
73,3:1
73,4:1
73,5:1
73,6:1
73,8:1
73,9:2
73,13:2
73,14:2
73,15:2
73,16:1
73,17:1
73,18:1
73,19:2
73,20:1
73,21:1
73,22:2
73,23:2
73,24:2
73,25:1
73,27:1
73,28:1
73,29:3
73,31:3
73,32:3
73,33:3
73,34:3
73,36:2
73,37:2
73,38:2
73,39:3
73,40:1
73,41:3
73,42:3
73,43:3
73,45:1
73,46:1
73,47:3
73,49:3
73,53:2
73,54:3
73,55:3
73,56:1
73,57:1
73,60:3
73,62:3
73,63:1
73,64:3
73,65:1
73,66:3
73,68:2
73,69:1
73,70:2
73,72:1
73,80:1
74,1:1
74,2:1
74,3:1
74,4:1
74,5:1
74,6:1
74,8:1
74,9:2
74,13:2
74,14:2
74,15:2
74,16:1
74,17:1
74,18:1
74,19:2
74,20:1
74,21:1
74,22:2
74,23:2
74,24:2
74,25:1
74,27:1
74,28:1
74,29:3
74,31:3
74,32:3
74,33:3
74,34:3
74,36:2
74,37:2
74,38:2
74,39:3
74,40:1
74,41:3
74,42:3
74,43:3
74,45:1
74,46:1
74,47:3
74,49:3
74,53:2
74,54:3
74,55:3
74,56:1
74,57:1
74,60:3
74,62:3
74,63:1
74,64:3
74,65:1
74,66:3
74,68:2
74,69:1
74,70:2
74,72:1
74,80:1
75,1:1
75,2:1
75,3:1
75,4:1
75,5:1
75,6:1
75,8:1
75,9:2
75,13:2
75,14:2
75,15:2
75,16:1
75,17:1
75,18:1
75,19:2
75,20:1
75,21:1
75,22:2
75,23:2
75,24:2
75,25:1
75,27:1
75,28:1
75,29:3
75,31:3
75,32:3
75,33:3
75,34:3
75,36:2
75,37:2
75,38:2
75,39:3
75,40:1
75,41:3
75,42:3
75,43:3
75,45:1
75,46:1
75,47:3
75,49:3
75,53:2
75,54:3
75,55:3
75,56:1
75,57:1
75,60:3
75,62:3
75,63:1
75,64:3
75,65:1
75,66:3
75,68:2
75,69:1
75,70:2
75,72:1
75,80:1
76,1:1
76,2:1
76,3:1
76,4:1
76,5:1
76,6:1
76,8:1
76,9:2
76,13:2
76,14:2
76,15:2
76,16:1
76,17:1
76,18:1
76,19:2
76,20:1
76,21:1
76,22:2
76,23:2
76,24:2
76,25:1
76,27:1
76,28:1
76,29:3
76,31:3
76,32:3
76,33:3
76,34:3
76,36:2
76,37:2
76,38:2
76,39:3
76,40:1
76,41:3
76,42:3
76,43:3
76,45:1
76,46:1
76,47:3
76,49:3
76,53:2
76,54:3
76,55:3
76,56:1
76,57:1
76,60:3
76,62:3
76,63:1
76,64:3
76,65:1
76,66:3
76,68:2
76,69:1
76,70:2
76,72:1
76,79:3
76,80:1
77,1:1
77,2:1
77,3:1
77,4:1
77,5:1
77,6:1
77,8:1
77,9:2
77,13:2
77,14:2
77,15:2
77,16:1
77,17:1
77,18:1
77,19:2
77,20:1
77,21:1
77,22:2
77,23:2
77,24:2
77,25:1
77,27:1
77,28:1
77,29:3
77,31:3
77,32:3
77,33:3
77,34:3
77,36:2
77,37:2
77,38:2
77,39:3
77,40:1
77,41:3
77,42:3
77,43:3
77,45:1
77,46:1
77,47:3
77,49:3
77,53:2
77,54:3
77,55:3
77,56:1
77,57:1
77,60:3
77,62:3
77,63:1
77,64:3
77,65:1
77,66:3
77,68:2
77,69:1
77,70:2
77,72:1
77,80:1
78,1:1
78,2:1
78,3:1
78,4:1
78,5:1
78,6:1
78,8:1
78,9:2
78,13:2
78,14:2
78,15:2
78,16:1
78,17:1
78,18:1
78,19:2
78,20:1
78,21:1
78,22:2
78,23:2
78,24:2
78,25:1
78,27:1
78,28:1
78,29:3
78,31:3
78,32:3
78,33:3
78,34:3
78,36:2
78,37:2
78,38:2
78,39:3
78,40:1
78,41:3
78,42:3
78,43:3
78,45:1
78,46:1
78,47:3
78,49:3
78,53:2
78,54:3
78,55:3
78,56:1
78,57:1
78,60:3
78,62:3
78,63:1
78,64:3
78,65:1
78,66:3
78,68:2
78,69:1
78,70:2
78,72:1
78,80:1
80,9:1
80,13:1
80,14:1
80,15:1
80,19:1
80,22:1
80,23:1
80,24:1
80,29:2
80,31:2
80,32:2
80,33:2
80,34:2
80,36:1
80,37:1
80,38:1
80,39:2
80,41:2
80,42:2
80,43:2
80,47:2
80,49:2
80,53:1
80,54:2
80,55:2
80,60:2
80,62:2
80,64:2
80,66:2
80,68:1
80,70:1
80,79:2
83,1:1
83,2:1
83,3:1
83,4:1
83,5:1
83,6:1
83,8:1
83,9:2
83,13:2
83,14:2
83,15:2
83,16:1
83,17:1
83,18:1
83,19:2
83,20:1
83,21:1
83,22:2
83,23:2
83,24:2
83,25:1
83,27:1
83,28:1
83,29:3
83,31:3
83,32:3
83,33:3
83,34:3
83,36:2
83,37:2
83,38:2
83,39:3
83,40:1
83,41:3
83,42:3
83,43:3
83,45:1
83,46:1
83,47:3
83,49:3
83,53:2
83,54:3
83,55:3
83,56:1
83,57:1
83,60:3
83,62:3
83,63:1
83,64:3
83,65:1
83,66:3
83,68:2
83,69:1
83,70:2
83,72:1
83,79:3
83,80:1
83,81:3
83,82:3
83,84:3
85,1:1
85,2:1
85,3:1
85,4:1
85,5:1
85,6:1
85,8:1
85,9:2
85,13:2
85,14:2
85,15:2
85,16:1
85,17:1
85,18:1
85,19:2
85,20:1
85,21:1
85,22:2
85,23:2
85,24:2
85,25:1
85,27:1
85,28:1
85,29:3
85,31:3
85,32:3
85,33:3
85,34:3
85,36:2
85,37:2
85,38:2
85,39:3
85,40:1
85,41:3
85,42:3
85,43:3
85,45:1
85,46:1
85,47:3
85,49:3
85,53:2
85,54:3
85,55:3
85,56:1
85,57:1
85,60:3
85,62:3
85,63:1
85,64:3
85,65:1
85,66:3
85,68:2
85,69:1
85,70:2
85,72:1
85,79:3
85,80:1
85,81:3
85,82:3
85,84:3
86,1:1
86,2:1
86,3:1
86,4:1
86,5:1
86,6:1
86,8:1
86,9:2
86,13:2
86,14:2
86,15:2
86,16:1
86,17:1
86,18:1
86,19:2
86,20:1
86,21:1
86,22:2
86,23:2
86,24:2
86,25:1
86,27:1
86,28:1
86,29:3
86,31:3
86,32:3
86,33:3
86,34:3
86,36:2
86,37:2
86,38:2
86,39:3
86,40:1
86,41:3
86,42:3
86,43:3
86,45:1
86,46:1
86,47:3
86,49:3
86,53:2
86,54:3
86,55:3
86,56:1
86,57:1
86,60:3
86,62:3
86,63:1
86,64:3
86,65:1
86,66:3
86,68:2
86,69:1
86,70:2
86,72:1
86,79:3
86,80:1
86,81:3
86,82:3
86,84:3
87,1:1
87,2:1
87,3:1
87,4:1
87,5:1
87,6:1
87,8:1
87,9:2
87,13:2
87,14:2
87,15:2
87,16:1
87,17:1
87,18:1
87,19:2
87,20:1
87,21:1
87,22:2
87,23:2
87,24:2
87,25:1
87,27:1
87,28:1
87,29:3
87,31:3
87,32:3
87,33:3
87,34:3
87,36:2
87,37:2
87,38:2
87,39:3
87,40:1
87,41:3
87,42:3
87,43:3
87,45:1
87,46:1
87,47:3
87,49:3
87,53:2
87,54:3
87,55:3
87,56:1
87,57:1
87,60:3
87,62:3
87,63:1
87,64:3
87,65:1
87,66:3
87,68:2
87,69:1
87,70:2
87,72:1
87,79:3
87,80:1
87,81:3
87,82:3
87,84:3
88,29:1
88,31:1
88,32:1
88,33:1
88,34:1
88,39:1
88,41:1
88,42:1
88,43:1
88,47:1
88,49:1
88,54:1
88,55:1
88,60:1
88,62:1
88,64:1
88,66:1
88,79:1
88,81:1
88,82:1
88,84:1
89,29:1
89,31:1
89,32:1
89,33:1
89,34:1
89,39:1
89,41:1
89,42:1
89,43:1
89,47:1
89,49:1
89,54:1
89,55:1
89,60:1
89,62:1
89,64:1
89,66:1
89,79:1
89,81:1
89,82:1
89,84:1

<end>

<optimal SALBP-1 value>
24


<rand seed>
467321153

<Lower Bounds>
Lm1=24
Lms1=24
Lm2=0
Lm3=16
Lm4=24
Best=24

<Optimal Stations (Iterations: 10)>
30
